NAME : portcgen-29-20
COMMENT : portcgen N=29, seed=20
TYPE : TSP
DIMENSION : 29
EDGE_WEIGHT_TYPE : EUC_2D
NODE_COORD_SECTION
1 269743 -76663
2 -106380 -20325
3 -510238 209690
4 153990 34048
5 93484 365909
6 -86375 -224495
7 3734 8765
8 -52961 -715664
9 93139 190174
10 116917 -105121
11 -117525 25043
12 76258 -133542
13 -196185 -110324
14 -135971 75920
15 384296 -356932
16 105799 -155521
17 163276 154874
18 64360 131750
19 -86169 -203450
20 118360 -173281
21 -104276 184850
22 -132527 -399160
23 -159921 -61142
24 -12885 -198157
25 77934 -95343
26 438640 -259820
27 -394507 38675
28 -168381 -147054
29 -96118 358463
